10 10 3

0 479 200 483 490 105 144 354 352 389 
460 0 396 269 237 350 156 337 174 272 
412 463 0 188 112 379 346 358 365 106 
236 471 159 0 171 449 65 361 194 120 
455 498 422 344 0 213 317 319 400 373 
181 237 498 404 355 0 460 298 173 338 
143 481 409 407 424 379 0 65 94 83 
287 405 228 357 116 432 278 0 166 352 
301 435 251 173 323 194 170 226 0 256 
337 230 379 381 324 116 290 437 490 0 

378.5 0 8
378.5 1 5
378.5 2 6
378.5 3 1
378.5 4 5
378.5 5 7
378.5 6 3
378.5 7 5
378.5 8 7
378.5 9 7

